T = 150;
V = 10;
Q = 15;
L = 11;
C = 1;
P = 10;
time = [|  0, 28, 23, 11, 29, 29, 11, 39, 28, 34, 28, 24, 24, 29, 28, 28, 32, 24, 34, 29, 19, 19, 19, 19, 19, 19, 19, 19, 19, 19, 19, 19, 19, 19, 19, 19, 19, 19, 19, 19,
        | 28,  0, 10, 19, 11,  5, 19, 19,  0,  8,  0, 14, 14,  5,  0,  0, 32, 14,  8, 11, 13, 13, 13, 13, 13, 13, 13, 13, 13, 13, 13, 13, 13, 13, 13, 13, 13, 13, 13, 13,
        | 23, 10,  0, 16, 19, 14, 16, 18, 10, 14, 10,  5,  5, 14, 10, 10, 23,  5, 14, 19,  4,  4,  4,  4,  4,  4,  4,  4,  4,  4,  4,  4,  4,  4,  4,  4,  4,  4,  4,  4,
        | 11, 19, 16,  0, 18, 19,  0, 33, 19, 25, 19, 19, 19, 19, 19, 19, 33, 19, 25, 18, 13, 13, 13, 13, 13, 13, 13, 13, 13, 13, 13, 13, 13, 13, 13, 13, 13, 13, 13, 13,
        | 29, 11, 19, 18,  0,  7, 18, 30, 11, 17, 11, 23, 23,  7, 11, 11, 41, 23, 17,  0, 20, 20, 20, 20, 20, 20, 20, 20, 20, 20, 20, 20, 20, 20, 20, 20, 20, 20, 20, 20,
        | 29,  5, 14, 19,  7,  0, 19, 24,  5, 11,  5, 18, 18,  0,  5,  5, 36, 18, 11,  7, 16, 16, 16, 16, 16, 16, 16, 16, 16, 16, 16, 16, 16, 16, 16, 16, 16, 16, 16, 16,
        | 11, 19, 16,  0, 18, 19,  0, 33, 19, 25, 19, 19, 19, 19, 19, 19, 33, 19, 25, 18, 13, 13, 13, 13, 13, 13, 13, 13, 13, 13, 13, 13, 13, 13, 13, 13, 13, 13, 13, 13,
        | 39, 19, 18, 33, 30, 24, 33,  0, 19, 14, 19, 16, 16, 24, 19, 19, 24, 16, 14, 30, 21, 21, 21, 21, 21, 21, 21, 21, 21, 21, 21, 21, 21, 21, 21, 21, 21, 21, 21, 21,
        | 28,  0, 10, 19, 11,  5, 19, 19,  0,  8,  0, 14, 14,  5,  0,  0, 32, 14,  8, 11, 13, 13, 13, 13, 13, 13, 13, 13, 13, 13, 13, 13, 13, 13, 13, 13, 13, 13, 13, 13,
        | 34,  8, 14, 25, 17, 11, 25, 14,  8,  0,  8, 16, 16, 11,  8,  8, 31, 16,  0, 17, 17, 17, 17, 17, 17, 17, 17, 17, 17, 17, 17, 17, 17, 17, 17, 17, 17, 17, 17, 17,
        | 28,  0, 10, 19, 11,  5, 19, 19,  0,  8,  0, 14, 14,  5,  0,  0, 32, 14,  8, 11, 13, 13, 13, 13, 13, 13, 13, 13, 13, 13, 13, 13, 13, 13, 13, 13, 13, 13, 13, 13,
        | 24, 14,  5, 19, 23, 18, 19, 16, 14, 16, 14,  0,  0, 18, 14, 14, 18,  0, 16, 23,  7,  7,  7,  7,  7,  7,  7,  7,  7,  7,  7,  7,  7,  7,  7,  7,  7,  7,  7,  7,
        | 24, 14,  5, 19, 23, 18, 19, 16, 14, 16, 14,  0,  0, 18, 14, 14, 18,  0, 16, 23,  7,  7,  7,  7,  7,  7,  7,  7,  7,  7,  7,  7,  7,  7,  7,  7,  7,  7,  7,  7,
        | 29,  5, 14, 19,  7,  0, 19, 24,  5, 11,  5, 18, 18,  0,  5,  5, 36, 18, 11,  7, 16, 16, 16, 16, 16, 16, 16, 16, 16, 16, 16, 16, 16, 16, 16, 16, 16, 16, 16, 16,
        | 28,  0, 10, 19, 11,  5, 19, 19,  0,  8,  0, 14, 14,  5,  0,  0, 32, 14,  8, 11, 13, 13, 13, 13, 13, 13, 13, 13, 13, 13, 13, 13, 13, 13, 13, 13, 13, 13, 13, 13,
        | 28,  0, 10, 19, 11,  5, 19, 19,  0,  8,  0, 14, 14,  5,  0,  0, 32, 14,  8, 11, 13, 13, 13, 13, 13, 13, 13, 13, 13, 13, 13, 13, 13, 13, 13, 13, 13, 13, 13, 13,
        | 32, 32, 23, 33, 41, 36, 33, 24, 32, 31, 32, 18, 18, 36, 32, 32,  0, 18, 31, 41, 22, 22, 22, 22, 22, 22, 22, 22, 22, 22, 22, 22, 22, 22, 22, 22, 22, 22, 22, 22,
        | 24, 14,  5, 19, 23, 18, 19, 16, 14, 16, 14,  0,  0, 18, 14, 14, 18,  0, 16, 23,  7,  7,  7,  7,  7,  7,  7,  7,  7,  7,  7,  7,  7,  7,  7,  7,  7,  7,  7,  7,
        | 34,  8, 14, 25, 17, 11, 25, 14,  8,  0,  8, 16, 16, 11,  8,  8, 31, 16,  0, 17, 17, 17, 17, 17, 17, 17, 17, 17, 17, 17, 17, 17, 17, 17, 17, 17, 17, 17, 17, 17,
        | 29, 11, 19, 18,  0,  7, 18, 30, 11, 17, 11, 23, 23,  7, 11, 11, 41, 23, 17,  0, 20, 20, 20, 20, 20, 20, 20, 20, 20, 20, 20, 20, 20, 20, 20, 20, 20, 20, 20, 20,
        | 19, 13,  4, 13, 20, 16, 13, 21, 13, 17, 13,  7,  7, 16, 13, 13, 22,  7, 17, 20,  0,  0,  0,  0,  0,  0,  0,  0,  0,  0,  0,  0,  0,  0,  0,  0,  0,  0,  0,  0,
        | 19, 13,  4, 13, 20, 16, 13, 21, 13, 17, 13,  7,  7, 16, 13, 13, 22,  7, 17, 20,  0,  0,  0,  0,  0,  0,  0,  0,  0,  0,  0,  0,  0,  0,  0,  0,  0,  0,  0,  0,
        | 19, 13,  4, 13, 20, 16, 13, 21, 13, 17, 13,  7,  7, 16, 13, 13, 22,  7, 17, 20,  0,  0,  0,  0,  0,  0,  0,  0,  0,  0,  0,  0,  0,  0,  0,  0,  0,  0,  0,  0,
        | 19, 13,  4, 13, 20, 16, 13, 21, 13, 17, 13,  7,  7, 16, 13, 13, 22,  7, 17, 20,  0,  0,  0,  0,  0,  0,  0,  0,  0,  0,  0,  0,  0,  0,  0,  0,  0,  0,  0,  0,
        | 19, 13,  4, 13, 20, 16, 13, 21, 13, 17, 13,  7,  7, 16, 13, 13, 22,  7, 17, 20,  0,  0,  0,  0,  0,  0,  0,  0,  0,  0,  0,  0,  0,  0,  0,  0,  0,  0,  0,  0,
        | 19, 13,  4, 13, 20, 16, 13, 21, 13, 17, 13,  7,  7, 16, 13, 13, 22,  7, 17, 20,  0,  0,  0,  0,  0,  0,  0,  0,  0,  0,  0,  0,  0,  0,  0,  0,  0,  0,  0,  0,
        | 19, 13,  4, 13, 20, 16, 13, 21, 13, 17, 13,  7,  7, 16, 13, 13, 22,  7, 17, 20,  0,  0,  0,  0,  0,  0,  0,  0,  0,  0,  0,  0,  0,  0,  0,  0,  0,  0,  0,  0,
        | 19, 13,  4, 13, 20, 16, 13, 21, 13, 17, 13,  7,  7, 16, 13, 13, 22,  7, 17, 20,  0,  0,  0,  0,  0,  0,  0,  0,  0,  0,  0,  0,  0,  0,  0,  0,  0,  0,  0,  0,
        | 19, 13,  4, 13, 20, 16, 13, 21, 13, 17, 13,  7,  7, 16, 13, 13, 22,  7, 17, 20,  0,  0,  0,  0,  0,  0,  0,  0,  0,  0,  0,  0,  0,  0,  0,  0,  0,  0,  0,  0,
        | 19, 13,  4, 13, 20, 16, 13, 21, 13, 17, 13,  7,  7, 16, 13, 13, 22,  7, 17, 20,  0,  0,  0,  0,  0,  0,  0,  0,  0,  0,  0,  0,  0,  0,  0,  0,  0,  0,  0,  0,
        | 19, 13,  4, 13, 20, 16, 13, 21, 13, 17, 13,  7,  7, 16, 13, 13, 22,  7, 17, 20,  0,  0,  0,  0,  0,  0,  0,  0,  0,  0,  0,  0,  0,  0,  0,  0,  0,  0,  0,  0,
        | 19, 13,  4, 13, 20, 16, 13, 21, 13, 17, 13,  7,  7, 16, 13, 13, 22,  7, 17, 20,  0,  0,  0,  0,  0,  0,  0,  0,  0,  0,  0,  0,  0,  0,  0,  0,  0,  0,  0,  0,
        | 19, 13,  4, 13, 20, 16, 13, 21, 13, 17, 13,  7,  7, 16, 13, 13, 22,  7, 17, 20,  0,  0,  0,  0,  0,  0,  0,  0,  0,  0,  0,  0,  0,  0,  0,  0,  0,  0,  0,  0,
        | 19, 13,  4, 13, 20, 16, 13, 21, 13, 17, 13,  7,  7, 16, 13, 13, 22,  7, 17, 20,  0,  0,  0,  0,  0,  0,  0,  0,  0,  0,  0,  0,  0,  0,  0,  0,  0,  0,  0,  0,
        | 19, 13,  4, 13, 20, 16, 13, 21, 13, 17, 13,  7,  7, 16, 13, 13, 22,  7, 17, 20,  0,  0,  0,  0,  0,  0,  0,  0,  0,  0,  0,  0,  0,  0,  0,  0,  0,  0,  0,  0,
        | 19, 13,  4, 13, 20, 16, 13, 21, 13, 17, 13,  7,  7, 16, 13, 13, 22,  7, 17, 20,  0,  0,  0,  0,  0,  0,  0,  0,  0,  0,  0,  0,  0,  0,  0,  0,  0,  0,  0,  0,
        | 19, 13,  4, 13, 20, 16, 13, 21, 13, 17, 13,  7,  7, 16, 13, 13, 22,  7, 17, 20,  0,  0,  0,  0,  0,  0,  0,  0,  0,  0,  0,  0,  0,  0,  0,  0,  0,  0,  0,  0,
        | 19, 13,  4, 13, 20, 16, 13, 21, 13, 17, 13,  7,  7, 16, 13, 13, 22,  7, 17, 20,  0,  0,  0,  0,  0,  0,  0,  0,  0,  0,  0,  0,  0,  0,  0,  0,  0,  0,  0,  0,
        | 19, 13,  4, 13, 20, 16, 13, 21, 13, 17, 13,  7,  7, 16, 13, 13, 22,  7, 17, 20,  0,  0,  0,  0,  0,  0,  0,  0,  0,  0,  0,  0,  0,  0,  0,  0,  0,  0,  0,  0,
        | 19, 13,  4, 13, 20, 16, 13, 21, 13, 17, 13,  7,  7, 16, 13, 13, 22,  7, 17, 20,  0,  0,  0,  0,  0,  0,  0,  0,  0,  0,  0,  0,  0,  0,  0,  0,  0,  0,  0,  0|];
l =     [  7, 11,  3,  5,  1, 10,  5,  9, 11,  6, 11,  2,  2, 10, 11, 11,  8,  2,  6,  1];
a =     [ 23, 27,  4, 20, 20, 16, 13, 40, 31, 30, 69, 52, 28, 54, 44, 34, 60, 72, 56, 61];
b =     [ 58, 53, 33, 50, 50, 34, 44, 63, 60, 54,109, 93, 79,112,112, 81,107,115,104,108];
s =     [ 18, 11, 19, 15, 13, 13, 14, 16, 17, 14, 18, 11, 19, 15, 13, 13, 14, 16, 17, 14];
q =     [  2,  3,  4,  2,  4,  4,  3,  2,  1,  3, -2, -3, -4, -2, -4, -4, -3, -2, -1, -3];
